networks/zoo_129_3332/zoo_129_3332.txt
Number of groups: 73
Flow 56: {3 56} {56 61} {61 60} {60 59} {59 124} 
Flow 63: {2 1} 
Flow 151: {4 8} {8 23} {23 13} {13 78} 
Flow 170: {32 33} {33 98} 
Flow 244: {8 47} 
Flow 251: {5 8} {8 54} {54 119} 
Flow 258: {5 4} {4 57} {57 61} {61 126} 
Flow 280: {6 8} {8 9} {9 27} {27 92} 
Flow 307: {7 1} {1 3} {3 8} {8 4} {4 69} 
Flow 334: {37 15} {15 80} 
Flow 449: {10 9} {9 28} {28 32} {32 97} 
Flow 458: {11 8} {8 73} 
Flow 516: {12 11} {11 76} 
Flow 592: {14 13} {13 23} {23 16} {16 81} 
Flow 659: {15 37} {37 102} 
Flow 685: {16 23} {23 18} {18 83} 
Flow 746: {17 23} {23 19} {19 84} 
Flow 848: {18 23} {23 64} {64 129} 
Flow 890: {19 23} {23 45} 
Flow 934: {20 23} {23 29} 
Flow 1008: {21 20} {20 45} {45 110} 
Flow 1038: {22 21} {21 23} {23 26} {26 91} 
Flow 1171: {24 23} {23 63} {63 128} 
Flow 1182: {25 26} {26 9} {9 10} {10 75} 
Flow 1207: {26 23} {23 38} {38 103} 
Flow 1335: {27 9} {9 8} {8 48} 
Flow 1434: {29 9} {9 26} {26 25} {25 90} 
Flow 1465: {29 23} {23 55} 
Flow 1509: {30 37} {37 42} {42 107} 
Flow 1551: {31 37} {37 39} {39 104} 
Flow 1656: {33 32} {32 36} {36 101} 
Flow 1703: {34 32} {32 28} {28 93} 
Flow 1754: {35 32} {32 34} {34 99} 
Flow 1808: {28 9} {9 29} {29 94} 
Flow 1813: {36 32} {32 35} {35 100} 
Flow 1950: {38 23} {23 8} {8 57} {57 122} 
Flow 1972: {39 37} {37 23} {23 20} {20 85} 
Flow 2043: {40 37} {37 44} {44 109} 
Flow 2100: {41 37} {37 43} {43 108} 
Flow 2145: {42 37} {37 31} {31 96} 
Flow 2202: {43 37} {37 41} {41 106} 
Flow 2253: {44 37} {37 40} {40 105} 
Flow 2288: {45 23} {23 17} {17 82} 
Flow 2291: {45 20} {20 21} {21 86} 
Flow 2325: {49 8} {8 5} {5 70} 
Flow 2366: {46 49} {49 114} 
Flow 2381: {1 66} 
Flow 2383: {47 8} {8 3} {3 68} 
Flow 2394: {13 14} {14 79} 
Flow 2425: {47 48} {48 113} 
Flow 2428: {47 54} {54 53} {53 51} {51 116} 
Flow 2484: {48 8} {8 49} {49 46} {46 111} 
Flow 2485: {48 47} {47 112} 
Flow 2530: {50 11} {11 12} {12 77} 
Flow 2623: {54 47} 
Flow 2627: {51 53} {53 52} {52 117} 
Flow 2688: {52 53} {53 118} 
Flow 2705: {1 7} {7 72} 
Flow 2747: {53 54} {54 8} {8 11} {11 50} {50 115} 
Flow 3013: {58 59} {59 60} {60 61} {61 56} {56 121} 
Flow 3016: {60 125} 
Flow 3077: {56 3} {3 1} {1 2} {2 67} 
Flow 3081: {61 57} {57 8} {8 6} {6 71} 
Flow 3135: {59 58} {58 55} {55 64} 
Flow 3137: {57 4} {4 5} 
Flow 3154: {62 9} {9 74} 
Flow 3174: {62 23} {23 37} {37 30} {30 95} 
Flow 3212: {63 23} {23 88} 
Flow 3217: {63 55} {55 120} 
Flow 3239: {64 23} {23 24} {24 89} 
Flow 3267: {64 55} {55 58} {58 123} 
Flow 3292: {65 55} {55 23} {23 21} {21 22} {22 87} 
Flow 3331: {55 63} 
Time taken running everything: 361 seconds
