networks/zoo_129_3332/zoo_129_3332.sol
<?xml version = "1.0" encoding="UTF-8" standalone="yes"?>
<CPLEXSolution version="1.2">
 <header
   problemName="networks/zoo_129_3332/zoo_129_3332.lp"
   solutionName="incumbent"
   solutionIndex="-1"
   objectiveValue="73"
   solutionTypeValue="3"
   solutionTypeString="primal"
   solutionStatusValue="101"
   solutionStatusString="integer optimal solution"
   solutionMethodString="mip"
   primalFeasible="1"
   dualFeasible="1"
   MIPNodes="1174"
   MIPIterations="266558"
   writeLevel="3"/>
 <quality
   epInt="1.0000000000000001e-05"
   epRHS="9.9999999999999995e-07"
   maxIntInfeas="2.000000165480742e-09"
   maxPrimalInfeas="1.2000000992884452e-08"
   maxX="4"
   maxSlack="10"/>
 <variables>
  <variable name="Y(54,57)" index="6840" value="-6.66666721826914e-10"/>
  <variable name="Y(56,59)" index="7098" value="1"/>
  <variable name="Y(63,2)" index="7937" value="1"/>
  <variable name="Y(151,13)" index="19212" value="1"/>
  <variable name="Y(170,33)" index="21664" value="1"/>
  <variable name="Y(244,8)" index="31111" value="1"/>
  <variable name="Y(251,54)" index="32053" value="1"/>
  <variable name="Y(254,57)" index="32440" value="6.66666721826914e-10"/>
  <variable name="Y(258,61)" index="32956" value="1"/>
  <variable name="Y(280,27)" index="35738" value="1"/>
  <variable name="Y(307,4)" index="39171" value="1"/>
  <variable name="Y(334,15)" index="42638" value="1"/>
  <variable name="Y(449,32)" index="57375" value="1"/>
  <variable name="Y(458,8)" index="58503" value="1"/>
  <variable name="Y(516,11)" index="65930" value="1"/>
  <variable name="Y(592,16)" index="75663" value="1"/>
  <variable name="Y(659,37)" index="84260" value="1"/>
  <variable name="Y(685,18)" index="87569" value="1"/>
  <variable name="Y(746,19)" index="95378" value="1"/>
  <variable name="Y(848,64)" index="108479" value="1"/>
  <variable name="Y(890,23)" index="113814" value="1"/>
  <variable name="Y(934,23)" index="119446" value="1"/>
  <variable name="Y(1008,45)" index="128940" value="1"/>
  <variable name="Y(1038,26)" index="132761" value="1"/>
  <variable name="Y(1171,63)" index="149822" value="1"/>
  <variable name="Y(1182,10)" index="151177" value="1"/>
  <variable name="Y(1207,38)" index="154405" value="1"/>
  <variable name="Y(1335,8)" index="170759" value="1"/>
  <variable name="Y(1434,25)" index="183448" value="1"/>
  <variable name="Y(1465,23)" index="187414" value="1"/>
  <variable name="Y(1509,42)" index="193065" value="1"/>
  <variable name="Y(1551,39)" index="198438" value="1"/>
  <variable name="Y(1656,36)" index="211875" value="1"/>
  <variable name="Y(1703,28)" index="217883" value="1"/>
  <variable name="Y(1754,34)" index="224417" value="1"/>
  <variable name="Y(1808,29)" index="231324" value="1"/>
  <variable name="Y(1813,35)" index="231970" value="1"/>
  <variable name="Y(1950,57)" index="249528" value="1"/>
  <variable name="Y(1972,20)" index="252307" value="1"/>
  <variable name="Y(2043,44)" index="261419" value="1"/>
  <variable name="Y(2100,43)" index="268714" value="1"/>
  <variable name="Y(2145,31)" index="274462" value="1"/>
  <variable name="Y(2202,41)" index="281768" value="1"/>
  <variable name="Y(2253,40)" index="288295" value="1"/>
  <variable name="Y(2288,17)" index="292752" value="1"/>
  <variable name="Y(2291,21)" index="293140" value="1"/>
  <variable name="Y(2325,5)" index="297476" value="1"/>
  <variable name="Y(2366,49)" index="302768" value="1"/>
  <variable name="Y(2381,1)" index="304640" value="1"/>
  <variable name="Y(2383,3)" index="304898" value="1"/>
  <variable name="Y(2394,14)" index="306317" value="1"/>
  <variable name="Y(2425,48)" index="310319" value="1"/>
  <variable name="Y(2428,51)" index="310706" value="1"/>
  <variable name="Y(2484,46)" index="317869" value="1"/>
  <variable name="Y(2485,47)" index="317998" value="1"/>
  <variable name="Y(2530,12)" index="323723" value="1"/>
  <variable name="Y(2623,54)" index="335669" value="1"/>
  <variable name="Y(2627,52)" index="336179" value="1"/>
  <variable name="Y(2688,53)" index="343988" value="1"/>
  <variable name="Y(2705,7)" index="346118" value="1"/>
  <variable name="Y(2747,50)" index="351537" value="1"/>
  <variable name="Y(3013,56)" index="385591" value="1"/>
  <variable name="Y(3016,60)" index="385979" value="1"/>
  <variable name="Y(3077,2)" index="393729" value="1"/>
  <variable name="Y(3081,6)" index="394245" value="1"/>
  <variable name="Y(3135,55)" index="401206" value="1"/>
  <variable name="Y(3137,4)" index="401411" value="1"/>
  <variable name="Y(3154,9)" index="403592" value="1"/>
  <variable name="Y(3174,30)" index="406173" value="1"/>
  <variable name="Y(3212,23)" index="411030" value="1"/>
  <variable name="Y(3217,55)" index="411702" value="1"/>
  <variable name="Y(3239,24)" index="414487" value="1"/>
  <variable name="Y(3267,58)" index="418105" value="1"/>
  <variable name="Y(3292,22)" index="421269" value="1"/>
  <variable name="Y(3331,55)" index="426294" value="1"/>
  <variable name="X(1,2,3077)" index="429572" value="1"/>
  <variable name="X(1,3,307)" index="430134" value="1"/>
  <variable name="X(1,7,2705)" index="435864" value="1"/>
  <variable name="X(1,66,2381)" index="438872" value="1"/>
  <variable name="X(2,1,63)" index="439886" value="1"/>
  <variable name="X(2,67,3077)" index="446232" value="1"/>
  <variable name="X(3,1,3077)" index="449564" value="1"/>
  <variable name="X(3,8,54)" index="449873" value="-2.000000165480742e-09"/>
  <variable name="X(3,8,307)" index="450126" value="1"/>
  <variable name="X(3,8,2844)" index="452663" value="2.000000165480742e-09"/>
  <variable name="X(3,56,56)" index="453207" value="1"/>
  <variable name="X(3,68,2383)" index="458866" value="1"/>
  <variable name="X(4,5,3137)" index="462952" value="1"/>
  <variable name="X(4,8,151)" index="463298" value="1"/>
  <variable name="X(4,57,196)" index="466675" value="-1.333333443653828e-09"/>
  <variable name="X(4,57,254)" index="466733" value="1.333333443653828e-09"/>
  <variable name="X(4,57,258)" index="466737" value="1"/>
  <variable name="X(4,69,307)" index="470118" value="1"/>
  <variable name="X(5,4,258)" index="473401" value="1"/>
  <variable name="X(5,8,251)" index="476726" value="1"/>
  <variable name="X(5,70,2325)" index="482132" value="1"/>
  <variable name="X(6,8,280)" index="483419" value="1"/>
  <variable name="X(6,71,3081)" index="489552" value="1"/>
  <variable name="X(7,1,307)" index="490110" value="1"/>
  <variable name="X(7,72,2705)" index="495840" value="1"/>
  <variable name="X(8,3,2383)" index="498850" value="1"/>
  <variable name="X(8,4,307)" index="500106" value="1"/>
  <variable name="X(8,5,2325)" index="505456" value="1"/>
  <variable name="X(8,6,3081)" index="509544" value="1"/>
  <variable name="X(8,9,280)" index="510075" value="1"/>
  <variable name="X(8,11,2747)" index="515874" value="1"/>
  <variable name="X(8,23,151)" index="516610" value="1"/>
  <variable name="X(8,47,244)" index="520035" value="1"/>
  <variable name="X(8,48,1335)" index="524458" value="1"/>
  <variable name="X(8,49,2484)" index="528939" value="1"/>
  <variable name="X(8,54,251)" index="530038" value="1"/>
  <variable name="X(8,57,54)" index="533173" value="-6.66666721826914e-10"/>
  <variable name="X(8,57,1681)" index="534800" value="6.66666721826914e-10"/>
  <variable name="X(8,57,1950)" index="535069" value="1"/>
  <variable name="X(8,73,458)" index="536909" value="1"/>
  <variable name="X(9,8,1335)" index="541118" value="1"/>
  <variable name="X(9,10,1182)" index="544297" value="1"/>
  <variable name="X(9,26,1434)" index="547881" value="1"/>
  <variable name="X(9,27,280)" index="550059" value="1"/>
  <variable name="X(9,28,449)" index="553560" value="1"/>
  <variable name="X(9,29,1808)" index="558251" value="1"/>
  <variable name="X(9,74,3154)" index="562929" value="1"/>
  <variable name="X(10,9,449)" index="563556" value="1"/>
  <variable name="X(10,75,1182)" index="567621" value="1"/>
  <variable name="X(11,8,458)" index="570229" value="1"/>
  <variable name="X(11,12,2530)" index="575633" value="1"/>
  <variable name="X(11,50,2747)" index="579182" value="1"/>
  <variable name="X(11,76,516)" index="580283" value="1"/>
  <variable name="X(12,11,516)" index="583615" value="1"/>
  <variable name="X(12,77,2530)" index="588961" value="1"/>
  <variable name="X(13,14,2394)" index="592157" value="1"/>
  <variable name="X(13,23,592)" index="593687" value="1"/>
  <variable name="X(13,78,151)" index="596578" value="1"/>
  <variable name="X(14,13,592)" index="600351" value="1"/>
  <variable name="X(14,79,2394)" index="605485" value="1"/>
  <variable name="X(15,37,659)" index="607082" value="1"/>
  <variable name="X(15,80,334)" index="610089" value="1"/>
  <variable name="X(16,23,685)" index="613772" value="1"/>
  <variable name="X(16,81,592)" index="617011" value="1"/>
  <variable name="X(17,23,746)" index="620497" value="1"/>
  <variable name="X(17,82,2288)" index="625371" value="1"/>
  <variable name="X(18,23,848)" index="627263" value="1"/>
  <variable name="X(18,83,685)" index="630432" value="1"/>
  <variable name="X(19,23,890)" index="633969" value="1"/>
  <variable name="X(19,84,746)" index="637157" value="1"/>
  <variable name="X(20,21,2291)" index="642034" value="1"/>
  <variable name="X(20,23,934)" index="644009" value="1"/>
  <variable name="X(20,45,1008)" index="647415" value="1"/>
  <variable name="X(20,85,1972)" index="651711" value="1"/>
  <variable name="X(21,20,1008)" index="654079" value="1"/>
  <variable name="X(21,22,3292)" index="659695" value="1"/>
  <variable name="X(21,23,1038)" index="660773" value="1"/>
  <variable name="X(21,86,2291)" index="665358" value="1"/>
  <variable name="X(22,21,1038)" index="667437" value="1"/>
  <variable name="X(22,87,3292)" index="673023" value="1"/>
  <variable name="X(23,8,1950)" index="675013" value="1"/>
  <variable name="X(23,13,151)" index="676546" value="1"/>
  <variable name="X(23,16,592)" index="680319" value="1"/>
  <variable name="X(23,17,2288)" index="685347" value="1"/>
  <variable name="X(23,18,685)" index="687076" value="1"/>
  <variable name="X(23,19,746)" index="690469" value="1"/>
  <variable name="X(23,20,1972)" index="695027" value="1"/>
  <variable name="X(23,21,3292)" index="699679" value="1"/>
  <variable name="X(23,24,3239)" index="702958" value="1"/>
  <variable name="X(23,26,1038)" index="704089" value="1"/>
  <variable name="X(23,29,934)" index="707317" value="1"/>
  <variable name="X(23,37,3174)" index="712889" value="1"/>
  <variable name="X(23,38,1207)" index="714254" value="1"/>
  <variable name="X(23,45,890)" index="717269" value="1"/>
  <variable name="X(23,55,1465)" index="721176" value="1"/>
  <variable name="X(23,63,1171)" index="724214" value="1"/>
  <variable name="X(23,64,848)" index="727223" value="1"/>
  <variable name="X(23,88,3212)" index="732919" value="1"/>
  <variable name="X(24,23,1171)" index="734210" value="1"/>
  <variable name="X(24,89,3239)" index="739610" value="1"/>
  <variable name="X(25,26,1182)" index="740885" value="1"/>
  <variable name="X(25,90,1434)" index="744469" value="1"/>
  <variable name="X(26,9,1182)" index="747549" value="1"/>
  <variable name="X(26,23,1207)" index="750906" value="1"/>
  <variable name="X(26,25,1434)" index="754465" value="1"/>
  <variable name="X(26,91,1038)" index="757401" value="1"/>
  <variable name="X(27,9,1335)" index="761030" value="1"/>
  <variable name="X(27,92,280)" index="763307" value="1"/>
  <variable name="X(28,9,1808)" index="768167" value="1"/>
  <variable name="X(28,32,449)" index="770140" value="1"/>
  <variable name="X(28,93,1703)" index="774726" value="1"/>
  <variable name="X(29,9,1434)" index="777789" value="1"/>
  <variable name="X(29,23,1465)" index="781152" value="1"/>
  <variable name="X(29,94,1808)" index="784827" value="1"/>
  <variable name="X(30,37,1509)" index="787860" value="1"/>
  <variable name="X(30,95,3174)" index="792857" value="1"/>
  <variable name="X(31,37,1551)" index="794566" value="1"/>
  <variable name="X(31,96,2145)" index="798492" value="1"/>
  <variable name="X(32,28,1703)" index="801382" value="1"/>
  <variable name="X(32,33,170)" index="803181" value="1"/>
  <variable name="X(32,34,1754)" index="808097" value="1"/>
  <variable name="X(32,35,1813)" index="811488" value="1"/>
  <variable name="X(32,36,1656)" index="814663" value="1"/>
  <variable name="X(32,97,449)" index="816788" value="1"/>
  <variable name="X(33,32,1656)" index="821327" value="1"/>
  <variable name="X(33,98,170)" index="823173" value="1"/>
  <variable name="X(34,32,1703)" index="828038" value="1"/>
  <variable name="X(34,99,1754)" index="831421" value="1"/>
  <variable name="X(35,32,1754)" index="834753" value="1"/>
  <variable name="X(35,100,1813)" index="838144" value="1"/>
  <variable name="X(36,32,1813)" index="841476" value="1"/>
  <variable name="X(36,101,1656)" index="844651" value="1"/>
  <variable name="X(37,15,334)" index="846661" value="1"/>
  <variable name="X(37,23,1972)" index="851631" value="1"/>
  <variable name="X(37,30,3174)" index="856165" value="1"/>
  <variable name="X(37,31,2145)" index="858468" value="1"/>
  <variable name="X(37,39,1551)" index="861206" value="1"/>
  <variable name="X(37,40,2253)" index="865240" value="1"/>
  <variable name="X(37,41,2202)" index="868521" value="1"/>
  <variable name="X(37,42,1509)" index="871160" value="1"/>
  <variable name="X(37,43,2100)" index="875083" value="1"/>
  <variable name="X(37,44,2043)" index="878358" value="1"/>
  <variable name="X(37,102,659)" index="880306" value="1"/>
  <variable name="X(38,23,1950)" index="884929" value="1"/>
  <variable name="X(38,103,1207)" index="887518" value="1"/>
  <variable name="X(39,37,1972)" index="891615" value="1"/>
  <variable name="X(39,104,1551)" index="894526" value="1"/>
  <variable name="X(40,37,2043)" index="898350" value="1"/>
  <variable name="X(40,105,2253)" index="901892" value="1"/>
  <variable name="X(41,37,2100)" index="905071" value="1"/>
  <variable name="X(41,106,2202)" index="908505" value="1"/>
  <variable name="X(42,37,2145)" index="911780" value="1"/>
  <variable name="X(42,107,1509)" index="914476" value="1"/>
  <variable name="X(43,37,2202)" index="918501" value="1"/>
  <variable name="X(43,108,2100)" index="921731" value="1"/>
  <variable name="X(44,37,2253)" index="925216" value="1"/>
  <variable name="X(44,109,2043)" index="928338" value="1"/>
  <variable name="X(45,20,2291)" index="931918" value="1"/>
  <variable name="X(45,23,2288)" index="935247" value="1"/>
  <variable name="X(45,110,1008)" index="937299" value="1"/>
  <variable name="X(46,49,2366)" index="941989" value="1"/>
  <variable name="X(46,111,2484)" index="945439" value="1"/>
  <variable name="X(47,8,2383)" index="948670" value="1"/>
  <variable name="X(47,48,2425)" index="952044" value="1"/>
  <variable name="X(47,54,2428)" index="955379" value="1"/>
  <variable name="X(47,112,2485)" index="958768" value="1"/>
  <variable name="X(48,8,2484)" index="962099" value="1"/>
  <variable name="X(48,47,2485)" index="965432" value="1"/>
  <variable name="X(48,113,2425)" index="968704" value="1"/>
  <variable name="X(49,8,2325)" index="971936" value="1"/>
  <variable name="X(49,46,2484)" index="975427" value="1"/>
  <variable name="X(49,114,2366)" index="978641" value="1"/>
  <variable name="X(50,11,2530)" index="982137" value="1"/>
  <variable name="X(50,115,2747)" index="985686" value="1"/>
  <variable name="X(51,53,2627)" index="988898" value="1"/>
  <variable name="X(51,116,2428)" index="992031" value="1"/>
  <variable name="X(52,53,2688)" index="995623" value="1"/>
  <variable name="X(52,117,2627)" index="998894" value="1"/>
  <variable name="X(53,51,2428)" index="1002027" value="1"/>
  <variable name="X(53,52,2627)" index="1005558" value="1"/>
  <variable name="X(53,54,2747)" index="1009010" value="1"/>
  <variable name="X(53,118,2688)" index="1012283" value="1"/>
  <variable name="X(54,8,2747)" index="1015674" value="1"/>
  <variable name="X(54,47,2623)" index="1018882" value="1"/>
  <variable name="X(54,53,2428)" index="1022019" value="1"/>
  <variable name="X(54,119,251)" index="1023174" value="1"/>
  <variable name="X(55,23,3292)" index="1029547" value="1"/>
  <variable name="X(55,58,3267)" index="1032854" value="1"/>
  <variable name="X(55,63,3331)" index="1036250" value="1"/>
  <variable name="X(55,64,3135)" index="1039386" value="1"/>
  <variable name="X(55,120,3217)" index="1042800" value="1"/>
  <variable name="X(56,3,2844)" index="1045759" value="-2.000000165480742e-09"/>
  <variable name="X(56,3,3077)" index="1045992" value="1.0000000020000002"/>
  <variable name="X(56,61,56)" index="1046303" value="1"/>
  <variable name="X(56,121,3013)" index="1052592" value="1"/>
  <variable name="X(57,4,3137)" index="1056048" value="1"/>
  <variable name="X(57,8,3081)" index="1059324" value="1"/>
  <variable name="X(57,61,258)" index="1059833" value="1"/>
  <variable name="X(57,122,54)" index="1062961" value="-6.66666721826914e-10"/>
  <variable name="X(57,122,254)" index="1063161" value="6.66666721826914e-10"/>
  <variable name="X(57,122,1950)" index="1064857" value="1"/>
  <variable name="X(58,55,3135)" index="1069374" value="1"/>
  <variable name="X(58,59,3013)" index="1072584" value="1"/>
  <variable name="X(58,123,3267)" index="1076170" value="1"/>
  <variable name="X(59,58,3135)" index="1079370" value="1"/>
  <variable name="X(59,60,3013)" index="1082580" value="1"/>
  <variable name="X(59,124,56)" index="1082955" value="1"/>
  <variable name="X(60,59,56)" index="1086287" value="1"/>
  <variable name="X(60,61,3013)" index="1092576" value="1"/>
  <variable name="X(60,125,3016)" index="1095911" value="1"/>
  <variable name="X(61,56,3013)" index="1099240" value="1"/>
  <variable name="X(61,57,3081)" index="1102640" value="1"/>
  <variable name="X(61,60,56)" index="1102947" value="1"/>
  <variable name="X(61,126,258)" index="1106481" value="1"/>
  <variable name="X(62,9,3154)" index="1112709" value="1"/>
  <variable name="X(62,23,3174)" index="1116061" value="1"/>
  <variable name="X(63,23,3212)" index="1119431" value="1"/>
  <variable name="X(63,55,3217)" index="1122768" value="1"/>
  <variable name="X(63,128,1171)" index="1124054" value="1"/>
  <variable name="X(64,23,3239)" index="1129454" value="1"/>
  <variable name="X(64,55,3267)" index="1132814" value="1"/>
  <variable name="X(64,129,848)" index="1133727" value="1"/>
  <variable name="X(65,55,3292)" index="1139503" value="1"/>
  <variable name="C(54,8)" index="1139808" value="-2.000000165480742e-09"/>
  <variable name="C(54,57)" index="1139809" value="-2.666666887307656e-09"/>
  <variable name="C(56,56)" index="1139818" value="1"/>
  <variable name="C(56,61)" index="1139819" value="2"/>
  <variable name="C(56,60)" index="1139820" value="3"/>
  <variable name="C(56,59)" index="1139821" value="4"/>
  <variable name="C(151,8)" index="1140226" value="1"/>
  <variable name="C(151,23)" index="1140227" value="2"/>
  <variable name="C(151,13)" index="1140228" value="3"/>
  <variable name="C(170,33)" index="1140311" value="1"/>
  <variable name="C(251,8)" index="1140652" value="1"/>
  <variable name="C(251,54)" index="1140653" value="2"/>
  <variable name="C(254,57)" index="1140664" value="1.333333443653828e-09"/>
  <variable name="C(258,4)" index="1140682" value="1"/>
  <variable name="C(258,57)" index="1140683" value="2"/>
  <variable name="C(258,61)" index="1140684" value="3"/>
  <variable name="C(280,8)" index="1140765" value="1"/>
  <variable name="C(280,9)" index="1140766" value="2"/>
  <variable name="C(280,27)" index="1140767" value="3"/>
  <variable name="C(307,1)" index="1140885" value="1"/>
  <variable name="C(307,3)" index="1140886" value="2"/>
  <variable name="C(307,8)" index="1140887" value="3"/>
  <variable name="C(307,4)" index="1140888" value="4"/>
  <variable name="C(334,15)" index="1141000" value="1"/>
  <variable name="C(449,9)" index="1141418" value="1"/>
  <variable name="C(449,28)" index="1141419" value="2"/>
  <variable name="C(449,32)" index="1141420" value="3"/>
  <variable name="C(458,8)" index="1141453" value="1"/>
  <variable name="C(516,11)" index="1141698" value="1"/>
  <variable name="C(592,13)" index="1142031" value="1"/>
  <variable name="C(592,23)" index="1142032" value="2"/>
  <variable name="C(592,16)" index="1142033" value="3"/>
  <variable name="C(659,37)" index="1142376" value="1"/>
  <variable name="C(685,23)" index="1142487" value="1"/>
  <variable name="C(685,18)" index="1142488" value="2"/>
  <variable name="C(746,23)" index="1142744" value="1"/>
  <variable name="C(746,19)" index="1142745" value="2"/>
  <variable name="C(848,23)" index="1143178" value="1"/>
  <variable name="C(848,64)" index="1143179" value="2"/>
  <variable name="C(890,23)" index="1143351" value="1"/>
  <variable name="C(934,23)" index="1143531" value="1"/>
  <variable name="C(1008,20)" index="1143846" value="1"/>
  <variable name="C(1008,45)" index="1143847" value="2"/>
  <variable name="C(1038,21)" index="1143981" value="1"/>
  <variable name="C(1038,23)" index="1143982" value="2"/>
  <variable name="C(1038,26)" index="1143983" value="3"/>
  <variable name="C(1171,23)" index="1144498" value="1"/>
  <variable name="C(1171,63)" index="1144499" value="2"/>
  <variable name="C(1182,26)" index="1144551" value="1"/>
  <variable name="C(1182,9)" index="1144552" value="2"/>
  <variable name="C(1182,10)" index="1144553" value="3"/>
  <variable name="C(1207,23)" index="1144663" value="1"/>
  <variable name="C(1207,38)" index="1144664" value="2"/>
  <variable name="C(1335,9)" index="1145236" value="1"/>
  <variable name="C(1335,8)" index="1145237" value="2"/>
  <variable name="C(1434,9)" index="1145686" value="1"/>
  <variable name="C(1434,26)" index="1145687" value="2"/>
  <variable name="C(1434,25)" index="1145688" value="3"/>
  <variable name="C(1465,23)" index="1145814" value="1"/>
  <variable name="C(1509,37)" index="1146025" value="1"/>
  <variable name="C(1509,42)" index="1146026" value="2"/>
  <variable name="C(1551,37)" index="1146236" value="1"/>
  <variable name="C(1551,39)" index="1146237" value="2"/>
  <variable name="C(1656,32)" index="1146827" value="1"/>
  <variable name="C(1656,36)" index="1146828" value="2"/>
  <variable name="C(1681,57)" index="1147009" value="6.66666721826914e-10"/>
  <variable name="C(1703,32)" index="1147145" value="1"/>
  <variable name="C(1703,28)" index="1147146" value="2"/>
  <variable name="C(1754,32)" index="1147472" value="1"/>
  <variable name="C(1754,34)" index="1147473" value="2"/>
  <variable name="C(1808,9)" index="1147834" value="1"/>
  <variable name="C(1808,29)" index="1147835" value="2"/>
  <variable name="C(1813,32)" index="1147858" value="1"/>
  <variable name="C(1813,35)" index="1147859" value="2"/>
  <variable name="C(1950,23)" index="1148501" value="1"/>
  <variable name="C(1950,8)" index="1148502" value="2"/>
  <variable name="C(1950,57)" index="1148503" value="3"/>
  <variable name="C(1972,37)" index="1148605" value="1"/>
  <variable name="C(1972,23)" index="1148606" value="2"/>
  <variable name="C(1972,20)" index="1148607" value="3"/>
  <variable name="C(2043,37)" index="1148951" value="1"/>
  <variable name="C(2043,44)" index="1148952" value="2"/>
  <variable name="C(2100,37)" index="1149236" value="1"/>
  <variable name="C(2100,43)" index="1149237" value="2"/>
  <variable name="C(2145,37)" index="1149457" value="1"/>
  <variable name="C(2145,31)" index="1149458" value="2"/>
  <variable name="C(2202,37)" index="1149738" value="1"/>
  <variable name="C(2202,41)" index="1149739" value="2"/>
  <variable name="C(2253,37)" index="1149988" value="1"/>
  <variable name="C(2253,40)" index="1149989" value="2"/>
  <variable name="C(2288,23)" index="1150151" value="1"/>
  <variable name="C(2288,17)" index="1150152" value="2"/>
  <variable name="C(2291,20)" index="1150159" value="1"/>
  <variable name="C(2291,21)" index="1150160" value="2"/>
  <variable name="C(2325,8)" index="1150311" value="1"/>
  <variable name="C(2325,5)" index="1150312" value="2"/>
  <variable name="C(2366,49)" index="1150525" value="1"/>
  <variable name="C(2383,8)" index="1150610" value="1"/>
  <variable name="C(2383,3)" index="1150611" value="2"/>
  <variable name="C(2394,14)" index="1150650" value="1"/>
  <variable name="C(2425,48)" index="1150788" value="1"/>
  <variable name="C(2428,54)" index="1150797" value="1"/>
  <variable name="C(2428,53)" index="1150798" value="2"/>
  <variable name="C(2428,51)" index="1150799" value="3"/>
  <variable name="C(2484,8)" index="1151032" value="1"/>
  <variable name="C(2484,49)" index="1151033" value="2"/>
  <variable name="C(2484,46)" index="1151034" value="3"/>
  <variable name="C(2485,47)" index="1151036" value="1"/>
  <variable name="C(2530,11)" index="1151212" value="1"/>
  <variable name="C(2530,12)" index="1151213" value="2"/>
  <variable name="C(2627,53)" index="1151768" value="1"/>
  <variable name="C(2627,52)" index="1151769" value="2"/>
  <variable name="C(2688,53)" index="1152131" value="1"/>
  <variable name="C(2705,7)" index="1152224" value="1"/>
  <variable name="C(2747,54)" index="1152442" value="1"/>
  <variable name="C(2747,8)" index="1152443" value="2"/>
  <variable name="C(2747,11)" index="1152444" value="3"/>
  <variable name="C(2747,50)" index="1152445" value="4"/>
  <variable name="C(2844,3)" index="1152832" value="-2.000000165480742e-09"/>
  <variable name="C(3013,59)" index="1153629" value="1"/>
  <variable name="C(3013,60)" index="1153630" value="2"/>
  <variable name="C(3013,61)" index="1153631" value="3"/>
  <variable name="C(3013,56)" index="1153632" value="4"/>
  <variable name="C(3077,3)" index="1153979" value="1.0000000020000002"/>
  <variable name="C(3077,1)" index="1153980" value="2.0000000020000002"/>
  <variable name="C(3077,2)" index="1153981" value="3.0000000020000002"/>
  <variable name="C(3081,57)" index="1153997" value="1"/>
  <variable name="C(3081,8)" index="1153998" value="2"/>
  <variable name="C(3081,6)" index="1153999" value="3"/>
  <variable name="C(3135,58)" index="1154311" value="1"/>
  <variable name="C(3135,55)" index="1154312" value="2"/>
  <variable name="C(3137,4)" index="1154319" value="1"/>
  <variable name="C(3154,9)" index="1154394" value="1"/>
  <variable name="C(3174,23)" index="1154458" value="1"/>
  <variable name="C(3174,37)" index="1154459" value="2"/>
  <variable name="C(3174,30)" index="1154460" value="3"/>
  <variable name="C(3212,23)" index="1154618" value="1"/>
  <variable name="C(3217,55)" index="1154636" value="1"/>
  <variable name="C(3239,23)" index="1154720" value="1"/>
  <variable name="C(3239,24)" index="1154721" value="2"/>
  <variable name="C(3267,55)" index="1154841" value="1"/>
  <variable name="C(3267,58)" index="1154842" value="2"/>
  <variable name="C(3292,55)" index="1154960" value="1"/>
  <variable name="C(3292,23)" index="1154961" value="2"/>
  <variable name="C(3292,21)" index="1154962" value="3"/>
  <variable name="C(3292,22)" index="1154963" value="4"/>
 </variables>
</CPLEXSolution>
